[VALIDATOR STDOUT]
Checking plan: /home/jfan5/Safety-gen/runs/benchmark/optic/ferry_20260205_141548/ferry/optic_results/ferry-l31-c16-s31001.plan
Plan to validate:

Plan size: 69
1:
(sail l30 l8)
 
2:
(board c2 l8)
 
3:
(sail l8 l17)
 
4:
(debark c2 l17)
 
5:
(board c10 l17)
 
6:
(sail l17 l15)
 
7:
(debark c10 l15)
 
8:
(board c15 l15)
 
9:
(sail l15 l0)
 
10:
(debark c15 l0)
 
11:
(sail l0 l8)
 
12:
(board c11 l8)
 
13:
(sail l8 l28)
 
14:
(debark c11 l28)
 
15:
(sail l28 l8)
 
16:
(board c0 l8)
 
17:
(sail l8 l17)
 
18:
(debark c0 l17)
 
19:
(sail l17 l8)
 
20:
(sail l8 l4)
 
21:
(board c7 l4)
 
22:
(sail l4 l8)
 
23:
(sail l8 l3)
 
24:
(debark c7 l3)
 
25:
(board c9 l3)
 
26:
(sail l3 l12)
 
27:
(debark c9 l12)
 
28:
(sail l12 l3)
 
29:
(board c14 l3)
 
30:
(sail l3 l8)
 
31:
(sail l8 l7)
 
32:
(debark c14 l7)
 
33:
(sail l7 l22)
 
34:
(board c6 l22)
 
35:
(sail l22 l8)
 
36:
(debark c6 l8)
 
37:
(sail l8 l7)
 
38:
(sail l7 l20)
 
39:
(board c8 l20)
 
40:
(sail l20 l1)
 
41:
(debark c8 l1)
 
42:
(board c5 l1)
 
43:
(sail l1 l7)
 
44:
(debark c5 l7)
 
45:
(sail l7 l23)
 
46:
(sail l23 l20)
 
47:
(board c4 l20)
 
48:
(sail l20 l19)
 
49:
(debark c4 l19)
 
50:
(board c13 l19)
 
51:
(sail l19 l23)
 
52:
(sail l23 l12)
 
53:
(debark c13 l12)
 
54:
(sail l12 l23)
 
55:
(sail l23 l20)
 
56:
(board c1 l20)
 
57:
(sail l20 l11)
 
58:
(debark c1 l11)
 
59:
(sail l11 l23)
 
60:
(sail l23 l18)
 
61:
(board c3 l18)
 
62:
(sail l18 l23)
 
63:
(sail l23 l20)
 
64:
(debark c3 l20)
 
65:
(sail l20 l23)
 
66:
(sail l23 l14)
 
67:
(board c12 l14)
 
68:
(sail l14 l23)
 
69:
(debark c12 l23)
 

Plan Validation details
-----------------------

Checking next happening (time 1)
Deleting (at-ferry l30)
Adding (at-ferry l8)

Checking next happening (time 2)
Deleting (at c2 l8)
Deleting (empty-ferry)
Adding (on c2)

Checking next happening (time 3)
Deleting (at-ferry l8)
Adding (at-ferry l17)

Checking next happening (time 4)
Deleting (on c2)
Adding (at c2 l17)
Adding (empty-ferry)

Checking next happening (time 5)
Deleting (at c10 l17)
Deleting (empty-ferry)
Adding (on c10)

Checking next happening (time 6)
Deleting (at-ferry l17)
Adding (at-ferry l15)

Checking next happening (time 7)
Deleting (on c10)
Adding (at c10 l15)
Adding (empty-ferry)

Checking next happening (time 8)
Deleting (at c15 l15)
Deleting (empty-ferry)
Adding (on c15)

Checking next happening (time 9)
Deleting (at-ferry l15)
Adding (at-ferry l0)

Checking next happening (time 10)
Deleting (on c15)
Adding (at c15 l0)
Adding (empty-ferry)

Checking next happening (time 11)
Deleting (at-ferry l0)
Adding (at-ferry l8)

Checking next happening (time 12)
Deleting (at c11 l8)
Deleting (empty-ferry)
Adding (on c11)

Checking next happening (time 13)
Deleting (at-ferry l8)
Adding (at-ferry l28)

Checking next happening (time 14)
Deleting (on c11)
Adding (at c11 l28)
Adding (empty-ferry)

Checking next happening (time 15)
Deleting (at-ferry l28)
Adding (at-ferry l8)

Checking next happening (time 16)
Deleting (at c0 l8)
Deleting (empty-ferry)
Adding (on c0)

Checking next happening (time 17)
Deleting (at-ferry l8)
Adding (at-ferry l17)

Checking next happening (time 18)
Deleting (on c0)
Adding (at c0 l17)
Adding (empty-ferry)

Checking next happening (time 19)
Deleting (at-ferry l17)
Adding (at-ferry l8)

Checking next happening (time 20)
Deleting (at-ferry l8)
Adding (at-ferry l4)

Checking next happening (time 21)
Deleting (at c7 l4)
Deleting (empty-ferry)
Adding (on c7)

Checking next happening (time 22)
Deleting (at-ferry l4)
Adding (at-ferry l8)

Checking next happening (time 23)
Deleting (at-ferry l8)
Adding (at-ferry l3)

Checking next happening (time 24)
Deleting (on c7)
Adding (at c7 l3)
Adding (empty-ferry)

Checking next happening (time 25)
Deleting (at c9 l3)
Deleting (empty-ferry)
Adding (on c9)

Checking next happening (time 26)
Deleting (at-ferry l3)
Adding (at-ferry l12)

Checking next happening (time 27)
Deleting (on c9)
Adding (at c9 l12)
Adding (empty-ferry)

Checking next happening (time 28)
Deleting (at-ferry l12)
Adding (at-ferry l3)

Checking next happening (time 29)
Deleting (at c14 l3)
Deleting (empty-ferry)
Adding (on c14)

Checking next happening (time 30)
Deleting (at-ferry l3)
Adding (at-ferry l8)

Checking next happening (time 31)
Deleting (at-ferry l8)
Adding (at-ferry l7)

Checking next happening (time 32)
Deleting (on c14)
Adding (at c14 l7)
Adding (empty-ferry)

Checking next happening (time 33)
Deleting (at-ferry l7)
Adding (at-ferry l22)

Checking next happening (time 34)
Deleting (at c6 l22)
Deleting (empty-ferry)
Adding (on c6)

Checking next happening (time 35)
Deleting (at-ferry l22)
Adding (at-ferry l8)

Checking next happening (time 36)
Deleting (on c6)
Adding (at c6 l8)
Adding (empty-ferry)

Checking next happening (time 37)
Deleting (at-ferry l8)
Adding (at-ferry l7)

Checking next happening (time 38)
Deleting (at-ferry l7)
Adding (at-ferry l20)

Checking next happening (time 39)
Deleting (at c8 l20)
Deleting (empty-ferry)
Adding (on c8)

Checking next happening (time 40)
Deleting (at-ferry l20)
Adding (at-ferry l1)

Checking next happening (time 41)
Deleting (on c8)
Adding (at c8 l1)
Adding (empty-ferry)

Checking next happening (time 42)
Deleting (at c5 l1)
Deleting (empty-ferry)
Adding (on c5)

Checking next happening (time 43)
Deleting (at-ferry l1)
Adding (at-ferry l7)

Checking next happening (time 44)
Deleting (on c5)
Adding (at c5 l7)
Adding (empty-ferry)

Checking next happening (time 45)
Deleting (at-ferry l7)
Adding (at-ferry l23)

Checking next happening (time 46)
Deleting (at-ferry l23)
Adding (at-ferry l20)

Checking next happening (time 47)
Deleting (at c4 l20)
Deleting (empty-ferry)
Adding (on c4)

Checking next happening (time 48)
Deleting (at-ferry l20)
Adding (at-ferry l19)

Checking next happening (time 49)
Deleting (on c4)
Adding (at c4 l19)
Adding (empty-ferry)

Checking next happening (time 50)
Deleting (at c13 l19)
Deleting (empty-ferry)
Adding (on c13)

Checking next happening (time 51)
Deleting (at-ferry l19)
Adding (at-ferry l23)

Checking next happening (time 52)
Deleting (at-ferry l23)
Adding (at-ferry l12)

Checking next happening (time 53)
Deleting (on c13)
Adding (at c13 l12)
Adding (empty-ferry)

Checking next happening (time 54)
Deleting (at-ferry l12)
Adding (at-ferry l23)

Checking next happening (time 55)
Deleting (at-ferry l23)
Adding (at-ferry l20)

Checking next happening (time 56)
Deleting (at c1 l20)
Deleting (empty-ferry)
Adding (on c1)

Checking next happening (time 57)
Deleting (at-ferry l20)
Adding (at-ferry l11)

Checking next happening (time 58)
Deleting (on c1)
Adding (at c1 l11)
Adding (empty-ferry)

Checking next happening (time 59)
Deleting (at-ferry l11)
Adding (at-ferry l23)

Checking next happening (time 60)
Deleting (at-ferry l23)
Adding (at-ferry l18)

Checking next happening (time 61)
Deleting (at c3 l18)
Deleting (empty-ferry)
Adding (on c3)

Checking next happening (time 62)
Deleting (at-ferry l18)
Adding (at-ferry l23)

Checking next happening (time 63)
Deleting (at-ferry l23)
Adding (at-ferry l20)

Checking next happening (time 64)
Deleting (on c3)
Adding (at c3 l20)
Adding (empty-ferry)

Checking next happening (time 65)
Deleting (at-ferry l20)
Adding (at-ferry l23)

Checking next happening (time 66)
Deleting (at-ferry l23)
Adding (at-ferry l14)

Checking next happening (time 67)
Deleting (at c12 l14)
Deleting (empty-ferry)
Adding (on c12)

Checking next happening (time 68)
Deleting (at-ferry l14)
Adding (at-ferry l23)

Checking next happening (time 69)
Deleting (on c12)
Adding (at c12 l23)
Adding (empty-ferry)
Plan executed successfully - checking goal
Plan valid
Final value: 69 

Successful plans:
Value: 69
 /home/jfan5/Safety-gen/runs/benchmark/optic/ferry_20260205_141548/ferry/optic_results/ferry-l31-c16-s31001.plan 69
